sifdecoder -A pc64.lnx.gfo -st   A5NSDSIL

 Problem name: A5NSDSIL

 Double precision version will be formed

 The objective function uses 2 linear groups
 
 There are 20004 linear equality constraints
 
 There are 15004 free variables
 There are 10000 variables bounded only from below 
 There are 35008 fixed variables
 
 
 File successfully decoded
 CUTEST: tools (double precision version) compiled successfully
 CUTEst: ipopt (double precision version) compiled successfully

******************************************************************************
This program contains Ipopt, a library for large-scale nonlinear optimization.
 Ipopt is released as open source code under the Eclipse Public License (EPL).
         For more information visit http://projects.coin-or.org/Ipopt
******************************************************************************

This is Ipopt version trunk, running with linear solver ma57.

Number of nonzeros in equality constraint Jacobian...:    80004
Number of nonzeros in inequality constraint Jacobian.:        0
Number of nonzeros in Lagrangian Hessian.............:    30004

Total number of variables............................:    25004
                     variables with only lower bounds:    10000
                variables with lower and upper bounds:        0
                     variables with only upper bounds:        0
Total number of equality constraints.................:    20004
Total number of inequality constraints...............:        0
        inequality constraints with only lower bounds:        0
   inequality constraints with lower and upper bounds:        0
        inequality constraints with only upper bounds:        0

iter    objective    inf_pr   inf_du lg(mu)  ||d||  lg(rg) alpha_du alpha_pr  ls
   0  4.9999900e-01 6.35e+02 6.23e-01  -1.0 0.00e+00    -  0.00e+00 0.00e+00   0
   1  6.4609265e-01 6.34e+02 1.10e+00  -1.0 4.07e+01    -  1.02e-03 2.03e-03f  1
   2  8.3518538e-01 6.33e+02 1.10e+00  -1.0 3.84e+01    -  1.72e-03 1.70e-03f  1
   3  1.1115745e+00 6.31e+02 1.09e+00  -1.0 1.21e+01    -  1.88e-03 2.04e-03f  1
   4  1.4343884e+00 6.30e+02 1.09e+00  -1.0 3.54e+01    -  1.87e-03 2.11e-03f  1
   5  1.8746755e+00 6.28e+02 1.09e+00  -1.0 1.22e+01    -  2.76e-03 2.63e-03f  1
   6  2.4313808e+00 6.26e+02 1.09e+00  -1.0 3.02e+01    -  2.90e-03 3.12e-03f  1
   7  3.3160209e+00 6.23e+02 1.64e+00  -1.0 3.90e+01    -  3.29e-03 4.80e-03f  1
   8  4.8783942e+00 6.19e+02 2.15e+00  -1.0 1.19e+01   0.0 5.31e-03 6.67e-03f  1
   9  8.2888824e+00 6.10e+02 2.61e+00  -1.0 1.60e+01  -0.5 8.82e-03 1.47e-02f  1
iter    objective    inf_pr   inf_du lg(mu)  ||d||  lg(rg) alpha_du alpha_pr  ls
  10  1.9806954e+01 5.91e+02 1.04e+01  -1.0 1.15e+01  -0.1 1.05e-02 3.12e-02f  1
  11  4.7247045e+01 5.68e+02 1.05e+01  -1.0 1.07e+01   0.4 1.88e-02 3.94e-02f  1
  12  1.2112070e+02 5.16e+02 9.77e+00  -1.0 1.02e+01  -0.1 3.24e-02 9.05e-02f  1
  13  6.2335770e+02 3.74e+02 3.15e+01  -1.0 8.31e+00   0.3 5.29e-02 2.76e-01h  1
  14  6.2271158e+02 3.57e+02 2.56e+01  -1.0 1.08e+01  -0.2 3.09e-01 4.49e-02h  1
  15  1.6525007e+03 1.63e+02 1.68e+01  -1.0 5.72e+00   0.3 4.53e-01 5.42e-01h  1
  16  1.4995785e+03 1.55e+02 3.85e+01  -1.0 1.21e+01  -0.2 5.80e-01 5.32e-02f  1
  17  1.7218106e+03 9.22e+01 7.04e+01  -1.0 3.10e+00   0.2 1.00e+00 4.05e-01h  1
  18  1.5158913e+03 8.65e+01 1.01e+02  -1.0 1.98e+01  -0.3 3.45e-01 6.09e-02f  1
  19  1.5189511e+03 6.67e+01 1.93e+02  -1.0 2.39e+00   0.2 1.00e+00 2.30e-01h  1
iter    objective    inf_pr   inf_du lg(mu)  ||d||  lg(rg) alpha_du alpha_pr  ls
  20  1.3668201e+03 6.37e+01 2.09e+02  -1.0 2.90e+01  -0.3 1.68e-01 4.45e-02f  1
  21  1.3418311e+03 4.98e+01 3.25e+02  -1.0 2.34e+00   0.1 1.00e+00 2.18e-01h  1
  22  1.4460292e+03 3.63e+00 4.21e+01  -1.0 1.06e+00   0.5 1.00e+00 9.27e-01h  1
  23  1.3753606e+03 2.88e+00 2.84e+03  -1.0 1.97e+00   0.1 1.00e+00 2.06e-01f  1
  24  1.3409460e+03 1.52e+00 3.84e+03  -1.0 5.86e-01   0.5 1.00e+00 4.71e-01h  1
  25  1.2747954e+03 1.18e+00 9.45e+03  -1.0 2.61e+00   0.0 1.00e+00 2.24e-01f  1
  26  1.2235242e+03 4.62e-01 7.88e+03  -1.0 7.36e-01   0.4 1.00e+00 6.10e-01h  1
  27  1.1830873e+03 3.97e-01 3.03e+04  -1.0 2.67e+00  -0.0 1.00e+00 1.41e-01f  1
  28  1.1398898e+03 1.61e-01 2.52e+04  -1.0 6.49e-01   0.4 1.00e+00 5.94e-01h  1
  29  1.0580546e+03 1.20e-01 7.70e+04  -1.0 3.15e+00  -0.1 1.00e+00 2.56e-01f  1
Reallocating memory for MA57: lfact (1128682)
iter    objective    inf_pr   inf_du lg(mu)  ||d||  lg(rg) alpha_du alpha_pr  ls
  30  1.0269143e+03 7.65e-02 1.16e+05  -1.0 7.82e-01   0.3 1.00e+00 3.62e-01h  1
Reallocating memory for MA57: lfact (2474318)
  31  9.6934346e+02 6.27e-02 2.30e+05  -1.0 4.32e+00  -0.1 1.00e+00 1.80e-01f  1
Reallocating memory for MA57: lfact (2845152)
  32  9.3234690e+02 3.22e-02 2.22e+05  -1.0 9.47e-01   0.3 1.00e+00 4.87e-01h  1
  33  8.5938826e+02 2.52e-02 5.05e+05  -1.0 4.10e+00  -0.2 1.00e+00 2.17e-01f  1
  34  8.2593433e+02 1.53e-02 6.79e+05  -1.0 9.32e-01   0.2 1.00e+00 3.93e-01h  1
  35  7.5803231e+02 1.27e-02 1.69e+06  -1.0 7.25e+00  -0.2 1.00e+00 1.67e-01f  1
  36  7.3027065e+02 8.73e-03 2.70e+06  -1.0 1.31e+00   0.2 1.00e+00 3.14e-01h  1
  37  6.7293077e+02 7.48e-03 6.13e+06  -1.0 8.14e+00  -0.3 8.31e-01 1.43e-01f  1
  38  6.3584952e+02 3.60e-03 8.49e+06  -1.0 1.35e+00   0.1 1.00e+00 5.18e-01h  1
  39  6.3000890e+02 3.53e-03 4.63e+08  -1.0 1.42e+01  -0.3 6.00e-01 1.90e-02f  2
iter    objective    inf_pr   inf_du lg(mu)  ||d||  lg(rg) alpha_du alpha_pr  ls
  40  6.2999821e+02 3.53e-03 4.43e+08  -1.0 1.16e+00   0.1 1.17e-03 1.94e-04f  4
  41  6.2507067e+02 3.46e-03 2.19e+09  -1.0 1.23e+01  -0.4 7.63e-01 1.90e-02h  1
  42  5.6615486e+02 3.62e-08 2.02e+08  -1.0 1.06e+00   0.0 9.07e-01 1.00e+00f  1
  43  5.6564616e+02 3.54e-08 3.78e+08  -1.0 4.52e-01   0.5 1.19e-01 2.46e-02h  1
  44  5.6561296e+02 3.83e-08 3.77e+08  -1.0 1.64e+00  -0.0 6.82e-04 5.29e-04f  5
  45  5.4544143e+02 1.83e-06 3.74e+08  -1.0 5.15e-01   0.4 9.08e-03 8.44e-01f  1
  46  5.4368153e+02 3.19e-05 3.74e+08  -1.0 2.11e+00  -0.1 9.19e-05 2.43e-02f  1
  47  5.3717965e+02 9.33e-02 3.74e+08  -1.0 5.06e+00   0.4 9.44e-05 2.78e-01f  1
  48  5.3478365e+02 9.74e-02 1.55e+08  -1.0 2.64e+00  -0.1 5.84e-01 2.71e-02f  1
  49  5.3405104e+02 9.46e-02 4.75e+08  -1.0 1.47e+00   0.3 1.31e-01 2.93e-02h  2
iter    objective    inf_pr   inf_du lg(mu)  ||d||  lg(rg) alpha_du alpha_pr  ls
  50  5.0198625e+02 1.42e-01 2.70e+07  -1.0 2.93e+00  -0.2 1.00e+00 3.46e-01f  1
  51  4.8897620e+02 1.48e-01 1.01e+07  -1.0 8.66e-01   0.3 1.00e+00 6.27e-01f  1
  52  4.7163976e+02 1.30e-01 8.03e+06  -1.0 5.34e+00  -0.2 1.00e+00 2.02e-01f  1
  53  4.7120636e+02 1.26e-01 3.59e+09  -1.0 1.95e+00   0.2 6.96e-01 2.70e-02h  1
  54  4.5370502e+02 1.03e-01 5.61e+06  -1.0 3.26e+00  -0.3 1.00e+00 2.82e-01f  1
  55  4.3836954e+02 3.16e-02 1.53e+00  -1.0 1.08e+00   0.2 1.00e+00 1.00e+00f  1
  56  3.7729623e+02 2.64e-02 1.08e+01  -2.5 4.66e+00  -0.3 5.80e-01 1.63e-01f  1
  57  3.2957717e+02 2.15e-02 3.46e+01  -3.8 9.96e-01   0.1 9.01e-01 1.87e-01f  1
  58  2.7666255e+02 1.81e-02 3.22e+01  -3.8 8.97e+00  -0.4 3.96e-01 1.58e-01f  1
  59  2.4531100e+02 1.52e-02 3.95e+01  -3.8 1.50e+00   0.1 1.00e+00 1.59e-01f  1
Reallocating memory for MA57: lfact (2988116)
iter    objective    inf_pr   inf_du lg(mu)  ||d||  lg(rg) alpha_du alpha_pr  ls
  60  2.4530430e+02 1.52e-02 4.42e+07  -3.8 6.97e+00  -0.4 1.34e-05 2.75e-05f  1
  61  1.8913517e+02 1.03e-02 4.42e+07  -3.8 9.40e-01  -0.0 1.44e-04 3.25e-01f  1
  62  1.0737951e+02 2.27e-02 4.42e+07  -3.8 2.89e-01   0.4 2.90e-04 8.38e-01f  1
  63  1.0130607e+02 2.08e-02 3.57e+07  -3.8 1.18e+00  -0.1 1.94e-01 1.07e-01f  1
  64  9.2012804e+01 1.55e-02 3.56e+07  -3.8 3.73e-01   0.4 3.72e-05 3.09e-01f  1
  65  8.4707578e+01 1.37e-02 3.54e+07  -3.8 1.50e+00  -0.1 6.32e-03 1.46e-01f  1
  66  8.3582611e+01 1.31e-02 2.86e+07  -3.8 4.68e-01   0.3 1.00e+00 4.68e-02f  1
  67  7.1047642e+01 1.35e-02 2.13e+07  -3.8 1.91e+00  -0.2 1.80e-01 2.55e-01f  1
  68  6.6181033e+01 1.58e-02 1.64e+07  -3.8 6.10e-01   0.3 1.00e+00 2.30e-01f  1
  69  6.4034427e+01 1.59e-02 1.57e+07  -3.8 2.91e+00  -0.2 1.00e+00 4.46e-02f  1
iter    objective    inf_pr   inf_du lg(mu)  ||d||  lg(rg) alpha_du alpha_pr  ls
  70  6.0808325e+01 1.61e-02 1.32e+07  -3.8 7.43e-01   0.2 1.00e+00 1.58e-01f  1
  71  5.6286319e+01 1.60e-02 1.19e+07  -3.8 3.41e+00  -0.3 9.35e-01 1.02e-01f  1
  72  5.2442130e+01 1.54e-02 9.39e+06  -3.8 9.10e-01   0.2 1.00e+00 2.08e-01f  1
  73  4.6132489e+01 1.45e-02 7.78e+06  -3.8 2.61e+00  -0.3 1.00e+00 1.72e-01f  1
  74  4.5337260e+01 1.42e-02 7.36e+06  -3.8 6.56e-01   0.1 1.00e+00 5.29e-02f  1
  75  4.3382420e+01 1.39e-02 6.99e+06  -3.8 5.52e+00  -0.4 1.00e+00 5.04e-02f  1
  76  3.3420048e+01 9.64e-03 2.15e+06  -3.8 8.33e-01   0.1 1.00e+00 6.93e-01f  1
  77  2.6632017e+01 8.93e-03 1.94e+06  -3.8 1.45e+01  -0.4 4.50e-01 9.78e-02f  1
  78  2.6624846e+01 8.92e-03 1.93e+06  -3.8 9.95e-01   0.0 1.00e+00 5.78e-04f  1
Reallocating memory for MA57: lfact (6603514)
  79  2.4246744e+01 8.56e-03 1.83e+06  -3.8 1.06e+01  -0.5 6.15e-01 5.34e-02f  1
iter    objective    inf_pr   inf_du lg(mu)  ||d||  lg(rg) alpha_du alpha_pr  ls
  80  2.4035143e+01 8.44e-03 1.80e+06  -3.8 8.00e-01  -0.0 1.00e+00 1.91e-02f  1
  81  1.9279536e+01 7.40e-03 1.51e+06  -3.8 5.69e+00  -0.5 6.30e-01 1.60e-01f  1
  82  1.7509428e+01 6.36e-03 1.23e+06  -3.8 1.15e+00  -0.1 1.00e+00 1.82e-01f  1
  83  1.7125849e+01 6.31e-03 1.22e+06  -3.8 1.09e+01  -0.6 1.63e-01 1.01e-02f  1
  84  1.5759514e+01 5.42e-03 1.00e+06  -3.8 5.39e-01  -0.1 1.00e+00 1.80e-01f  1
  85  1.3867957e+01 2.84e-03 4.01e+05  -3.8 1.76e-01   0.3 1.00e+00 5.99e-01f  1
  86  1.1588508e+01 2.01e-03 2.62e+05  -3.8 7.17e-01  -0.2 1.00e+00 3.46e-01f  1
  87  9.7434380e+00 6.06e-04 4.81e+04  -3.8 2.06e-01   0.2 1.00e+00 8.17e-01f  1
  88  8.3133748e+00 4.52e-04 3.47e+04  -3.8 8.36e-01  -0.2 1.00e+00 2.78e-01f  1
  89  7.8139042e+00 3.45e-04 2.57e+04  -3.8 2.72e-01   0.2 1.00e+00 2.60e-01f  1
iter    objective    inf_pr   inf_du lg(mu)  ||d||  lg(rg) alpha_du alpha_pr  ls
  90  5.3794264e+00 1.78e-04 1.21e+04  -3.8 9.53e-01  -0.3 1.00e+00 5.29e-01f  1
  91  5.3653204e+00 1.76e-04 1.20e+04  -3.8 3.45e-01   0.1 1.00e+00 8.46e-03f  1
  92  5.1681508e+00 1.68e-04 1.15e+04  -3.8 1.47e+00  -0.3 1.79e-01 4.74e-02f  1
  93  3.8028552e+00 1.98e-05 5.24e+02  -3.8 4.10e-01   0.1 1.40e-01 9.54e-01f  1
  94  3.4202501e+00 1.77e-05 4.74e+02  -3.8 2.11e+00  -0.4 1.00e+00 1.08e-01f  1
  95  3.3330899e+00 1.75e-05 4.68e+02  -3.8 5.83e+00  -0.9 2.61e-01 1.57e-02f  1
  96  2.8750489e+00 1.14e-05 3.04e+02  -3.8 7.80e-01  -0.4 1.00e+00 3.62e-01f  1
  97  2.6044817e+00 1.09e-05 2.97e+02  -3.8 9.34e+00  -0.9 6.27e-01 4.53e-02f  1
  98  2.1519873e+00 6.90e-06 1.93e+02  -3.8 3.49e-01    -  1.00e+00 3.76e-01f  1
  99  1.9468310e+00 3.81e-06 1.14e+02  -3.8 2.09e-01    -  1.00e+00 4.63e-01f  1
iter    objective    inf_pr   inf_du lg(mu)  ||d||  lg(rg) alpha_du alpha_pr  ls
 100  1.8432967e+00 9.26e-07 3.68e+01  -3.8 9.71e-02    -  1.00e+00 7.91e-01f  1
 101  1.8296784e+00 1.86e-07 5.96e-08  -3.8 1.42e-02    -  1.00e+00 1.00e+00f  1
Reallocating memory for MA57: lfact (13326248)
 102  1.3734582e+00 5.10e-08 1.05e+02  -8.6 1.98e-02    -  9.90e-01 8.45e-01f  1
 103  1.3244219e+00 5.10e-08 3.77e+02  -8.6 1.13e-02    -  9.96e-01 4.74e-01f  1
 104  1.2790952e+00 5.10e-08 1.27e+02  -8.6 9.66e-03    -  1.00e+00 8.24e-01f  1
 105  1.2692634e+00 5.10e-08 2.22e+00  -8.6 4.29e-03    -  1.00e+00 9.97e-01f  1
 106  1.2691177e+00 5.10e-08 8.94e-08  -8.6 1.64e-03    -  1.00e+00 1.00e+00h  1
 107  1.2691022e+00 5.10e-08 1.19e-07  -8.6 7.71e-04    -  1.00e+00 1.00e+00h  1
 108  1.2691000e+00 5.10e-08 5.96e-08  -8.6 3.13e-04    -  1.00e+00 1.00e+00h  1
 109  1.2690997e+00 5.10e-08 1.19e-07  -8.6 9.19e-05    -  1.00e+00 1.00e+00h  1
iter    objective    inf_pr   inf_du lg(mu)  ||d||  lg(rg) alpha_du alpha_pr  ls
 110  1.2690997e+00 5.10e-08 1.19e-07  -8.6 3.40e-05    -  1.00e+00 1.00e+00h  1
 111  1.2690997e+00 5.10e-08 5.96e-08  -8.6 6.39e-06    -  1.00e+00 1.00e+00s 22
 112  1.2690997e+00 5.10e-08 5.96e-08  -8.6 2.44e-07    -  1.00e+00 1.00e+00s 22
 113  1.2690997e+00 5.10e-08 5.96e-08  -8.6 3.54e-10    -  1.00e+00 1.00e+00s 22

Number of Iterations....: 113

                                   (scaled)                 (unscaled)
Objective...............:   1.2690996620907433e+00    1.2690996620907433e+00
Dual infeasibility......:   5.9604644775390625e-08    5.9604644775390625e-08
Constraint violation....:   5.1008259238086994e-08    5.1008259238086994e-08
Complementarity.........:   2.5059036334392189e-09    2.5059036334392189e-09
Overall NLP error.......:   5.1008259238086994e-08    5.9604644775390625e-08


Number of objective function evaluations             = 145
Number of objective gradient evaluations             = 115
Number of equality constraint evaluations            = 145
Number of inequality constraint evaluations          = 0
Number of equality constraint Jacobian evaluations   = 115
Number of inequality constraint Jacobian evaluations = 0
Number of Lagrangian Hessian evaluations             = 114
Total CPU secs in IPOPT (w/o function evaluations)   =     50.835
Total CPU secs in NLP function evaluations           =      6.060

EXIT: Solved To Acceptable Level.

************************ CUTEst statistics ************************


 Package used            :  IPOPT
 Problem                 :  A5NSDSIL  
 # variables             =           60012
 # constraints           =           20004
 # objective functions   =        0.2610000E+03
 # objective gradients   =        0.1160000E+03
 # objective Hessians    =        0.1150000E+03
 # Hessian-vector prdct  =        0.0000000E+00
 # constraints functions =        0.2620000E+03
 # constraints gradients =        0.1170000E+03
 # constraints Hessians  =        0.1150000E+03
 Exit code               =               1
 Final f                 =        1.2690996620907433D+00
 Bounds feasibility      =        9.9999999932145417D-09
 Set up time             =            0.75 seconds
 Solve time              =          111.40 seconds


******************************************************************

